
<<< setup

Version identifier: 22.1.1.0 | 2022-11-27 | 9160aff4d
Tried aggregator 1 time.
LP Presolve eliminated 111 rows and 52 columns.
Reduced LP has 6 rows, 49 columns, and 49 nonzeros.
Presolve time = 0.00 sec. (0.05 ticks)

Iteration log . . .
Iteration:     1   Dual objective     =          1728.538111
main returns 0

<<< main


<<< done

